# hello
# open filegeometry.in.next_step
lattice_vector     39.01026350      0.02697934      0.59528900
lattice_vector     -0.01650957     12.09646498     -0.00069322
lattice_vector     -0.41623582     -0.00725198     12.21772233
atom      19.63970344      8.96092725      3.38829791 Pb
atom      18.93633919      3.15125447      9.42554472 Pb
atom      38.95090362      0.14537136      9.79503955 Pb
atom      19.43285434      9.20057369      9.49618798 Pb
atom      -0.36773091      5.92607157      3.01854992 Pb
atom      19.14521878      2.91175350      3.31430388 Pb
atom       0.13224789     11.97487886      3.08802129 Pb
atom      -0.57363259      6.16620676      9.12612856 Pb
atom      -0.11498218      2.91693355      3.93506272 I
atom      38.83219513      6.91611665      6.65443758 I
atom      19.32612028      3.86933462      6.35677834 I
atom      19.17880593      6.16139766     10.33935115 I
atom      22.54548027      9.09003573      9.54745206 I
atom      22.64100799      2.85171123      3.40731428 I
atom      35.45044997      0.20724506      9.70075396 I
atom      -0.32615422      9.17564221     10.04590485 I
atom      19.39431045      5.95121098      2.47144356 I
atom      19.19936588      0.11320866      8.58242006 I
atom      22.75262666      9.07897904      3.44354859 I
atom      19.24608289      8.24049833      6.45523375 I
atom       3.24477172     12.09231361      3.14169447 I
atom      15.93674837      9.26208274      9.40309428 I
atom       2.92579144      6.23472933      9.21959687 I
atom      -0.04506828      0.84602279      0.04908991 I
atom      35.52968446      6.06519294      3.55982123 I
atom       3.05431751      0.00634364      9.25716295 I
atom      15.82397296      3.03413730      9.37398923 I
atom       3.13289763      5.86293626      3.11305195 I
atom      19.38066976     11.99936971      4.23078889 I
atom      22.43212988      3.22186868      9.51819900 I
atom      35.32326511      6.07562175      9.66403733 I
atom      16.03185376      3.02302175      3.25900293 I
atom      38.89928540      8.99208298      2.76738798 I
atom      16.14374138      8.89183889      3.29544952 I
atom      19.12690307      2.18718840     12.46499658 I
atom      38.69610228      3.15453195      8.87546503 I
atom      -0.26004959     11.25443405      6.15681313 I
atom      19.45484572      9.92210831      0.34726302 I
atom      38.62366706      5.22992493     12.76254307 I
atom      35.64251224     11.93108065      3.59029354 I
atom      26.28461207      7.70996937      8.83443072 C
atom      30.05693580      0.09758371      8.92865094 C
atom      13.04682049      1.78179217     12.21677781 C
atom      34.04902180      3.31522948      6.88806864 C
atom       6.87174041      6.58222492      1.28596186 C
atom      26.09878134      8.48451125      7.69846646 C
atom      31.56276531     10.78386358     10.39575749 C
atom       6.80361951      4.72256716      8.52493733 C
atom      13.67969108     11.46917134      5.78480033 C
atom      10.08805474      4.28914085      0.72845252 C
atom      10.53921814      9.16212484      8.63241693 C
atom       9.32856392      6.08354455      5.04123807 C
atom      12.99750778      7.93012541     12.23355635 C
atom      24.90149692      0.65221498      7.03214875 C
atom      35.31064070      8.82977308     12.60533093 C
atom      29.57026776      1.29366826      1.03870622 C
atom      25.53897576     10.32710436      0.59680956 C
atom      16.18243852     12.08668387      0.51365098 C
atom      22.75758744      6.32599355      0.50319743 C
atom       4.55658019      8.63624594      6.00398467 C
atom      28.69411563     10.34935850      5.97419449 C
atom       6.65655729      5.51426644      7.39716993 C
atom       5.86727121      4.91237683      6.39136308 C
atom      12.06630820      7.75210943     10.09676970 C
atom      12.28634970      4.39403611      3.97446724 C
atom      12.27195894      2.42075451     11.22371883 C
atom       9.21941662      7.32111038      5.66288859 C
atom      14.56073990      0.28248837      6.59940843 C
atom      32.97054270      9.72040921     12.18793696 C
atom      33.16269748      8.56964864      6.04767796 C
atom      30.77297821      4.99072197      9.21834739 C
atom      13.46742180      0.51779186     11.86008983 C
atom       7.81851374      7.10685162      3.58213749 C
atom      28.79780914      9.11843977      5.33897054 C
atom       8.50000087     12.03119533      3.88155917 C
atom      35.68925077      3.04464788      0.80478257 C
atom      10.57792813      3.09445518      8.63433936 C
atom      26.50458148      4.37243148      2.71228956 C
atom       9.31154437      0.04262905      5.03717019 C
atom      12.20746661      8.53603484     11.23071292 C
atom      11.46846349     10.14260174      2.82872374 C
atom       5.60398514      8.43241715      0.62727293 C
atom      31.75346695      5.47236122     11.51767318 C
atom       7.00477297      1.38046174      2.43098701 C
atom      30.97104787      1.07836642      3.11936457 C
atom      31.91975050      0.55303732      5.41490717 C
atom      16.03497029      0.26485431      6.20258159 C
atom      28.51341416      1.76940986     12.06731986 C
atom      29.37299387      4.80486786      7.13366548 C
atom      28.72500076      4.32654153      5.94676012 C
atom       7.59128586     11.01992754      9.70350994 C
atom      26.30789700      1.72025624      8.82256420 C
atom      31.57342961      4.70105392     10.37853891 C
atom       7.01285409      7.36831316      2.41841926 C
atom      26.49504139     10.45695448      2.72873477 C
atom       6.82053661      0.60756878      1.29357689 C
atom      35.47789876      9.10807851      6.91984570 C
atom      27.08499694      7.99974297      9.99453229 C
atom      28.82213095      3.08473265      5.33111636 C
atom       9.96068362      9.11687648      1.36952577 C
atom      34.01534677      9.53335962      6.81568521 C
atom      35.52357933      3.29959703      6.49242936 C
atom      27.11292427      1.98301908      9.98634618 C
atom      31.96828719      6.66708020      5.40803662 C
atom      13.66540655      5.52542280      5.74781711 C
atom      31.77647830      1.33985208      4.28322197 C
atom      22.59093534      6.04316801      6.18883786 C
atom      11.28715025      1.93822099      8.92664656 C
atom      30.27119517      5.99862507      2.81923555 C
atom      13.47396026      6.68386193     11.88626188 C
atom       9.78313082      2.98696145      7.47923268 C
atom      34.25256487      8.81917399      0.78441202 C
atom       6.08103921      7.18576792      0.28220280 C
atom      14.72118193     11.65759036      0.40780870 C
atom       8.32358108      0.07597708      9.99552861 C
atom      23.81581855      6.34001248     12.32522558 C
atom      28.61935172      3.00829283     11.44774738 C
atom      14.75637234      5.78103153      0.48058305 C
atom      15.98090825      6.06418166      6.61851010 C
atom      25.32449934      7.84591849      6.70473327 C
atom      32.95617856      3.57276393     12.15111314 C
atom      27.83193138      3.13056088     10.28995389 C
atom       9.12065269      6.00461947     11.14693035 C
atom      12.08776252      1.64773928     10.08643065 C
atom      25.09806255      5.43827288      0.92074881 C
atom      10.77175415      2.95043970      2.52282385 C
atom      30.98092092      7.15416385      3.11296268 C
atom      13.24331062      4.26226567      6.10584637 C
atom      25.37463207      1.90031410      6.68688282 C
atom       5.39688655      3.66160885      6.73060498 C
atom      31.70816359     11.57284468     11.52567739 C
atom      13.21062544     10.21844780      6.12604996 C
atom      25.57054738      4.18948761      0.57716781 C
atom       9.87513167      1.75166001      6.85031339 C
atom      30.05500964      6.14248113      8.92943342 C
atom      12.42227038      9.61398648      5.12105073 C
atom       4.53250130      2.75351229      5.91453563 C
atom      30.75578830     11.04461279      9.23285203 C
atom      31.78228080      7.44262278      4.27275615 C
atom       5.62320417      2.50981848      0.65832608 C
atom      26.16394354      2.50616871      7.69036603 C
atom       8.54103364      5.96093451      3.88363579 C
atom      30.23432866     12.02802477      2.81500072 C
atom      27.79347226      9.15604735     10.28833619 C
atom       2.89186282      3.03802832     12.00202960 C
atom       6.79109633     10.73044404      8.54308272 C
atom       9.85941397      7.80306287      6.85279229 C
atom      28.49645965      7.81165033     12.07107433 C
atom      27.29453244     10.16548905      3.88910043 C
atom       3.05844149      2.76684616      6.31239734 C
atom      26.31434660      9.68699988      1.58880555 C
atom      34.22752985      2.61691707      0.69951976 C
atom      11.48711353      4.10333433      2.81372803 C
atom      24.02006482     11.83779373      6.21901503 C
atom       6.60852384     11.50261916      7.40492632 C
atom      32.74351603      7.30444921      6.40185961 C
atom      11.26081415      8.01546270      8.93338308 C
atom       9.98465269      3.05743709      1.36215947 C
atom      22.54560700     11.85563704      6.61468568 C
atom       4.32200874      9.33412438     12.03109975 C
atom      29.46326358      0.05480965      1.65814678 C
atom      24.05318624      5.61689851      6.29200894 C
atom       9.75132412      9.04052546      7.47487468 C
atom       9.02370314      4.76151454     11.75989419 C
atom       6.04459206      1.24619428      0.30111594 C
atom       7.80629958      1.09046762      3.59032553 C
atom       4.35306873      3.46691114     12.11017854 C
atom      29.24533426     12.06976399      7.77591829 C
atom      32.49812187     10.96960680     12.53014322 C
atom      29.34233789     10.82757572      7.16102998 C
atom      22.39932649      0.02090261     12.30295962 C
atom      28.58798230      9.04768855     11.44357574 C
atom      32.70978002      1.15738094      6.41875484 C
atom      27.31132451      4.11058263      3.87505001 C
atom       7.61065612      4.98153788      9.68816144 C
atom      32.53006815      4.83434284     12.51002740 C
atom      15.81482941      5.79470460     12.30373777 C
atom      28.01044683      9.01254054      4.17841168 C
atom      29.56890983      7.34386549      1.03690004 C
atom      28.02688504      2.96105946      4.17908267 C
atom       5.83277448     10.86376818      6.41237689 C
atom       3.26396809      9.32617425      0.21008711 C
atom       8.32580365      6.13056329      9.99494395 C
atom      29.47646840      6.10785235      1.66427930 C
atom       9.21885256      1.27776816      5.66629924 C
atom      24.90599691      6.58071964      7.05958649 C
atom      12.46878384      3.62246038      5.11300102 C
atom      29.26751485      6.03550736      7.76911609 C
atom      33.18417578      2.40525672      6.07440578 C
atom      10.05570899     10.36018093      0.75661456 C
atom      14.51862635      6.48994633      6.51416310 C
atom       9.09449774     12.06455667     11.15516672 C
atom      23.86047291      0.44980778     12.41032879 C
atom      10.75545423      8.99230084      2.52179986 C
atom      12.27471965     10.40368536      3.99195514 C
atom       3.09464394      9.06268089      5.89670170 C
atom      26.35982358      3.58488009      1.58131468 C
atom      25.11462910     11.58894534      0.95683854 C
atom       5.40989645      9.60080083      6.77027264 C
atom       8.99098902     10.83252391     11.78823444 C
atom       7.88193570      9.80981221     10.91933175 S
atom      27.58478458     11.37341704      5.10712159 S
atom      32.43306486      9.28972311     10.59593049 S
atom      25.47798370      6.18267746      8.64488761 S
atom       5.93557708      3.22760666      8.32129644 S
atom      30.67727597      2.30586570      1.92207166 S
atom      11.19670607      5.31254903      1.59707827 S
atom      13.14114200     11.89986751      4.19328710 S
atom      25.43748990      0.22562494      8.62558674 S
atom      27.38936317      6.78606294     11.20367507 S
atom      32.38807781      3.17732215     10.56381845 S
atom       6.13822429      8.86047000      2.22107483 S
atom      10.98312148      0.72569182      7.71619571 S
atom      11.16073425     11.37458933      1.63930345 S
atom       8.11014399      8.33277461      4.78160015 S
atom      10.96784022      6.79020332      7.73368617 S
atom      25.68251127     11.98196096      2.54476623 S
atom       5.97969409      9.20513253      8.35681407 S
atom       6.19448182      2.90613841      2.24428060 S
atom      12.89670222      0.12142994     10.27391530 S
atom      32.64833177      2.83352230      4.48127969 S
atom      13.09625338      5.92018979      4.16075306 S
atom      27.61729274      5.34059263      5.06696700 S
atom      25.63445970      5.86686434      2.51360919 S
atom      30.44983954      9.81389227      8.04154333 S
atom       8.10990604      2.30308788      4.80087194 S
atom      32.59002280      8.96921040      4.46302742 S
atom      12.94026347      6.25919081     10.29147114 S
atom      27.40767517      0.75597838     11.18377920 S
atom       7.91660762      3.74897898     10.87756576 S
atom      30.48427949      3.78246301      8.00022514 S
atom      30.67723141      8.36838067      1.90406143 S
atom      35.87850370     10.21405191     12.65210430 N
atom      16.58635883     10.97708058      6.24984247 N
atom      21.99289186      1.14266779      6.56316942 N
atom      22.19297283      4.94050439      0.45434676 N
atom       2.67234105      2.90501276      1.13052077 N
atom       2.45770184      9.19656816      7.24298011 N
atom      22.16378916     11.98658042      1.43113673 N
atom      36.09516941      1.91701502      6.54365264 N
atom      36.11196828      8.97369468      5.57221226 N
atom      35.90896926      3.16986229     11.67567152 N
atom      16.41578027      0.12356674     11.38463873 N
atom       2.48666502      4.14957761      6.26713741 N
atom      21.95905350      6.17871433      7.53734752 N
atom       2.69266229      7.94348509      0.16045072 N
atom      16.38107212      7.17932717     12.35655786 N
atom      16.61493832      5.93139161      5.27079834 N
atom      30.10368596      1.00075683      9.53110461 H
atom      13.69511831      2.23432164      0.96582523 H
atom      33.94950571      3.03627552      7.94726486 H
atom      33.71515848      4.35924987      6.81515672 H
atom       7.35359230      5.61513165      1.17508285 H
atom      26.53425955      9.47333415      7.58179685 H
atom      10.57606716     10.06126898      9.24147512 H
atom       9.97315816      5.29010613      5.41363099 H
atom      13.60614363      8.38512619      0.99039795 H
atom      36.31886036      8.22051667      1.07442315 H
atom      35.46311260      8.45417939     11.58621686 H
atom      24.89320027      9.87705434     11.84602946 H
atom      16.29936817      0.95805287      1.02098471 H
atom      16.76619989     11.34327461      1.06991530 H
atom      21.74843032      6.93467851     12.03443149 H
atom      22.60362447      6.69994932      1.52266565 H
atom       4.93073415      8.53429858      4.97484493 H
atom       4.61449818      7.63409098      6.45099977 H
atom       7.13349681      6.48429743      7.29115393 H
atom       5.67116055      5.36628659      5.42037546 H
atom      11.83471213      3.40863401     11.34185377 H
atom      14.46152322      0.00365099      7.65866007 H
atom      14.22766244      1.32669537      6.52645576 H
atom      29.44285369      8.31990986      5.69963510 H
atom       8.45448965     11.13699194      3.26547866 H
atom      35.79020883      4.01495315      1.30656136 H
atom      36.27081645      2.30330272      1.36612722 H
atom      10.62403291      3.98871103      9.25028744 H
atom       9.93642606     11.33832425      5.39878769 H
atom      11.72591105      9.50308422     11.34338336 H
atom      31.31204686      6.45816203     11.63774547 H
atom      31.42353801     11.68124992      5.52447711 H
atom      16.18730892      0.63945615      5.18310220 H
atom      16.62698150      0.88191158      6.88884892 H
atom       7.24219107     11.71661266      1.17410767 H
atom      36.05927246      9.85135164      7.47880589 H
atom      35.58108870      8.13888043      7.42331242 H
atom      29.46216147      2.28837462      5.70522754 H
atom       9.32238073      8.32015390      0.99326600 H
atom      33.64242326      9.63206879      7.84560140 H
atom      33.95560910     10.53661106      6.37138828 H
atom      35.67610886      3.67277148      5.47245952 H
atom      36.11322270      3.91970490      7.17803032 H
atom      31.53206241      5.67852229      5.52412874 H
atom      22.00815253      5.30007031      5.63113923 H
atom      22.48796284      7.01215860      5.68499167 H
atom      30.31686746      5.10354418      3.43398961 H
atom       9.14247258      3.78817403      7.11662399 H
atom      33.92009561      7.77469388      0.71243880 H
atom      34.15323257      9.09887469      1.84342371 H
atom       5.47241808      6.72871707     11.52631160 H
atom      14.24824290     10.64825267     12.17825552 H
atom      14.34778911     11.55500623      1.43715180 H
atom       8.28764315      0.96775192      9.37539683 H
atom      24.14652103      7.38485743     12.39958892 H
atom      23.91637470      6.06251871     11.26574472 H
atom      29.26151363      3.80291304     11.82183003 H
atom      14.42544582      4.73633211      0.40477917 H
atom      14.65540125      6.05718191      1.54037697 H
atom      16.56230510      6.80682723      7.17828332 H
atom      16.08373412      5.09450912      7.12106388 H
atom      25.09140614      8.29231175      5.73873378 H
atom      27.79343839      4.03086322      9.68272190 H
atom       9.76059350      6.80013932     11.52295149 H
atom      10.80768494      2.05906310      3.14352213 H
atom      13.47378462      3.81827268      7.07357301 H
atom      25.18036368      2.34956333      5.71337925 H
atom      31.24589423      0.44524187     11.63511168 H
atom      13.40706381      9.76633076      7.09781204 H
atom      24.95967986      3.73178169     11.82199535 H
atom      30.08936371      7.03300996      9.55141934 H
atom      11.94635695      8.64361649      5.22870803 H
atom       4.63035877      3.03642447      4.85623704 H
atom       4.86756756      1.70959623      5.98317412 H
atom      26.64262789      3.47484268      7.57951254 H
atom       8.50512258      5.06157102      3.27487668 H
atom      30.27201143     11.12753041      3.42200638 H
atom      27.74706353     10.05097794      9.67340450 H
atom       2.79208548      2.07016377     11.49530454 H
atom       2.30935206      3.78150453     11.44451715 H
atom       2.90757244      2.38993583      7.33126598 H
atom       2.46779191      2.14940490      5.62528184 H
atom      26.75433865      8.70064316      1.46797455 H
atom      33.75354054      1.60687741     12.47162969 H
atom      33.85472487      2.51616173      1.72926582 H
atom      24.11986075     12.11487471      5.15935750 H
atom      24.35303025     10.79365151      6.29382297 H
atom       7.06377061      0.39327476      7.28640710 H
atom      32.97657420      6.85730841      7.36753017 H
atom       9.33986446      2.25921492      1.00036933 H
atom      22.39261717     11.48356096      7.63496735 H
atom      21.95486056     11.23604340      5.92959735 H
atom       4.65597001     10.37825068     12.10214945 H
atom       4.42064650      9.05357745     10.97224860 H
atom      28.80359222     11.35742513      1.28343164 H
atom      24.42563095      5.51783304      5.26198893 H
atom      24.11248931      4.61374369      6.73654506 H
atom       9.10743349      9.83469061      7.10277696 H
atom       5.39630284      0.79373358     11.55203520 H
atom       4.82544369      4.47575577      0.34091579 H
atom       4.72759669      3.57078377     11.08134437 H
atom      28.62191906      0.76945797      7.40187407 H
atom      33.10959012     11.42867067      1.28456928 H
atom      22.28277102     11.14887292     11.79681856 H
atom      21.81685973      0.76381714     11.74465870 H
atom      29.22820815      9.84873702     11.80728005 H
atom      32.90359734      0.70722423      7.39193306 H
atom      33.17518979      5.28563056      1.26039308 H
atom      16.82255000      5.18351543      0.77151127 H
atom      15.96936894      5.42294244     11.28357583 H
atom      27.97466249      8.12193278      3.55659038 H
atom      27.98018588      2.05832742      3.57597037 H
atom       5.60211510     11.30827092      5.44492402 H
atom       2.25764779      9.93817870     11.74182118 H
atom       3.11190634      9.70047452      1.22972250 H
atom       8.27906450      7.03470703      9.39398083 H
atom      28.83523282      5.30752990      1.30075592 H
atom      12.03090576      2.63496809      5.23213697 H
atom      28.62098822      6.83300620      7.40885539 H
atom      14.14601943      6.59004206      7.54401268 H
atom      14.45932900      7.49268509      6.06866585 H
atom       9.75617840      0.76590168     11.51789124 H
atom      24.33302970      1.45864003      0.64108073 H
atom      24.23435238      0.55371589     11.38131345 H
atom      10.80374809      8.08830797      3.12288767 H
atom       2.51418946      8.31982803      5.33620474 H
atom       2.99300733     10.03206298      5.39327352 H
atom      26.83871945      2.61619833      1.47160312 H
atom      36.14461536     10.68354620      1.35851444 H
atom      35.47610010     10.82376748     11.90978420 H
atom      36.89799196     10.17593598     12.47259069 H
atom      16.18541257     10.36734560      5.50673451 H
atom      16.43469401     10.51476447      7.17368493 H
atom      17.60613998     11.01506154      6.07260554 H
atom      22.39055161      1.75396984      7.30691884 H
atom      20.97262514      1.10386023      6.73714804 H
atom      22.14674707      1.60370879      5.63898252 H
atom      21.92917698      4.47206769     11.74780510 H
atom      21.17316596      4.97597412      0.63217370 H
atom      22.59577922      4.33114430      1.19669090 H
atom       3.07158502      2.10996050      1.67999460 H
atom       1.66461631      2.69548946      1.01576786 H
atom       2.76370403      3.77550437      1.70500440 H
atom       2.55264260      8.32501612      7.81524111 H
atom       1.44908128      9.40136649      7.12823350 H
atom       2.85278152      9.99226538      7.79477450 H
atom      22.56227724     11.19168541      1.98148471 H
atom      21.15581611     11.77818732      1.31714932 H
atom      22.27276519      0.76137067      2.00501572 H
atom      35.69788481      1.30514173      5.80012879 H
atom      35.94310432      1.45552173      7.46790607 H
atom      37.11522340      1.95790372      6.36839865 H
atom      36.01585028      9.84485263      4.99948553 H
atom      35.71551726      8.17783484      5.02179869 H
atom      37.12080187      8.76889235      5.68486785 H
atom      35.51258897      3.96438909     11.12312151 H
atom      35.81504629      2.29733863     11.10459641 H
atom      36.91736760      3.37622235     11.78960169 H
atom      16.01555744      0.91884002     10.83624725 H
atom      16.30661208     11.34969201     10.80942928 H
atom      17.42373448      0.33278087     11.49733203 H
atom       2.88692839      4.75964669      7.01040690 H
atom       1.46722575      4.10835482      6.44609063 H
atom       2.63572775      4.61326745      5.34354137 H
atom      22.05614276      5.30796289      8.11046833 H
atom      20.95006957      6.38340120      7.42639299 H
atom      22.35660346      6.97489077      8.08644094 H
atom       2.42823183      7.47438841     11.45403086 H
atom       1.67270229      7.98393990      0.33643231 H
atom       3.09073528      7.33217378      0.90402089 H
atom      16.64285747      7.64657646      1.06342688 H
atom      15.98158509      7.79027206     11.61355180 H
atom      17.40134170      7.14283405     12.18187434 H
atom      16.51787689      6.80303032      4.69897606 H
atom      16.21930829      5.13549775      4.71975395 H
atom      17.62397236      5.72767168      5.38302861 H
