# /home/tz37/work/Defect-Engineering/CuBaSnSe/intermediate
lattice_vector      3.42286350     -5.70081844     -0.00101337
lattice_vector      3.42272032      5.70088757     -0.00025215
lattice_vector      0.00219415     -0.00178108     11.22465824
atom_frac       0.36887636      0.36887894     -0.00028184 Ba
atom_frac       0.36886084      0.36888008      0.49970840 Ba
atom_frac       0.91940718      0.62222298      0.24975169 Sn
atom_frac       0.62220205      0.91941361      0.74971105 Sn
atom_frac       0.86780079      0.35785354      0.06806709 Se
atom_frac       0.35785630      0.86778638      0.93138963 Se
atom_frac       0.86773079      0.35782634      0.43133696 Se
atom_frac       0.35782218      0.86776569      0.56813108 Se
atom_frac       0.55824572      0.68337440      0.24970986 Se
atom_frac       0.68333108      0.55822558      0.74971519 Se
atom_frac       0.25681752      0.03374154      0.24972344 Se
atom_frac       0.03374032      0.25682279      0.74972282 Se
atom_frac       0.55038542      0.99324509      0.12948759 Cu
atom_frac       0.99321238      0.55035072      0.86996431 Cu
atom_frac       0.55022699      0.99314478      0.37000774 Cu
atom_frac       0.99314853      0.55027314      0.62945985 Cu
# 
