# 
# This is the geometry file that corresponds to the current relaxation step.
# If you do not want this file to be written, set the "write_restart_geometry" flag to .false.
# 
lattice_vector      5.51311772     -3.18300000      0.00000000
lattice_vector      0.00000000      6.36600000      0.00000000
lattice_vector      0.00000000      0.00000000     15.82800000
atom_frac       0.90229786      0.66656149      0.24927990 Ba
atom_frac       0.33342664      0.23567037      0.58259392 Ba
atom_frac       0.76425040      0.09764237      0.91593004 Ba
atom_frac       0.33329993      0.37506759      0.08261632 Sn
atom_frac       0.62487135      0.95819827      0.41594143 Sn
atom_frac       0.04177321      0.66663537      0.74928917 Sn
atom_frac       0.26355770      0.24268310      0.33785242 Cu
atom_frac       0.75723543      0.02080685      0.67117583 Cu
atom_frac       0.97915915      0.73638756      0.00451941 Cu
atom_frac       0.68748056      0.09054144      0.16069681 Cu
atom_frac       0.90940354      0.59689734      0.49404092 Cu
atom_frac       0.40303273      0.31242328      0.82736529 Cu
atom_frac       0.38443522      0.17102270      0.20168308 S
atom_frac       0.82892139      0.21335847      0.53502528 S
atom_frac       0.78658920      0.61551285      0.86835687 S
atom_frac       0.88005084      0.16225793      0.29686393 S
atom_frac       0.83767242      0.71772078      0.63019791 S
atom_frac       0.28224575      0.11987947      0.96352992 S
atom_frac       0.98644194      0.43104623      0.08229276 S
atom_frac       0.56893811      0.55538364      0.41561302 S
atom_frac       0.44458852      0.01351582      0.74894166 S
atom_frac       0.68020770      0.77793195      0.08293055 S
atom_frac       0.22199227      0.90221549      0.41626205 S
atom_frac       0.09771452      0.31974615      0.74959808 S
# 
# What follows is the current estimated Hessian matrix constructed by the BFGS algorithm.
# This is NOT the true Hessian matrix of the system.
# If you do not want this information here, switch it off using the "hessian_to_restart_geometry" keyword.
# 
trust_radius             0.0811417429
hessian_block                1       1           2.582189           0.255884           0.107829           0.255884           2.758644           0.267860           0.107829           0.267860           3.778187
hessian_block                1       2          -0.044738           0.093184           0.267763           0.161273          -0.134729           0.097961          -0.199642          -0.401803          -0.047538
hessian_block                1       3          -0.066257           0.211974           0.138928          -0.351268          -0.094153          -0.082547          -0.149037          -0.506015          -0.085464
hessian_block                1       4          -0.128378           0.481023          -0.152126          -0.029727          -0.067248          -1.065225           0.343630           0.620957           0.247480
hessian_block                1       5          -0.321435           0.086370          -0.512245           0.216745          -0.250346          -0.715573           0.287385          -0.011258          -0.037583
hessian_block                1       6           0.083995           0.222843           0.302762           0.189917           0.435647          -0.328642          -0.254570          -0.209871          -1.529934
hessian_block                1       7          -0.134912          -0.098491           0.077682          -0.013562          -0.132261          -0.037904          -0.040372          -0.029558           0.065608
hessian_block                1       8          -0.002128           0.064127          -0.088599          -0.097983           0.008462          -0.023530          -0.018170          -0.001793          -0.055492
hessian_block                1       9           0.064599          -0.106613           0.014775           0.059722           0.082284          -0.078597          -0.020273          -0.007694          -0.071294
hessian_block                1      10          -0.033523           0.060762          -0.107015          -0.112486          -0.048297          -0.029497          -0.040925           0.018106           0.167793
hessian_block                1      11           0.098008          -0.122888          -0.025819          -0.034322          -0.001287          -0.039479          -0.117729          -0.083622          -0.027400
hessian_block                1      12          -0.104453          -0.020641          -0.112012           0.068172          -0.109860          -0.028936          -0.092414          -0.089128          -0.057968
hessian_block                1      13          -0.537256          -0.338921          -0.023887          -0.144007           0.199518           0.456837          -0.090290          -0.317875          -0.843291
hessian_block                1      14           0.277203           0.332574           0.310572          -0.137520           0.131170           0.326428           0.076795           0.512328           0.413981
hessian_block                1      15           0.202883           0.208332          -0.571234           0.405639           0.083452           0.166647           0.035506           0.109482           0.887960
hessian_block                1      16           0.222941           0.179135           0.166323          -0.059173          -0.548421           0.118932          -0.216343          -0.216179          -0.349474
hessian_block                1      17           0.138634           0.379710          -0.002490          -0.065142          -0.030270          -0.388828           0.460186           0.416528           0.629445
hessian_block                1      18          -0.138850          -0.332401          -0.047413          -0.223913          -0.031766           0.662569          -0.125494          -0.204718           0.631735
hessian_block                1      19           0.086069          -0.008638           0.082884           0.034853          -0.089226          -0.424328           0.169591          -0.109163          -0.737337
hessian_block                1      20          -0.044446           0.303799           0.425878          -0.138416           0.043031           0.210164           0.211173          -0.030780          -0.416326
hessian_block                1      21          -0.293277          -0.704459           0.456778          -0.152707          -0.110086           0.067701           0.201532           0.117257           0.301740
hessian_block                1      22           0.273368          -0.148538           0.064830           0.392611          -0.375161           0.467010          -0.193647           0.147671          -0.580486
hessian_block                1      23          -0.239098          -0.725815          -0.534081          -0.099420           0.378447          -0.017979          -0.349355          -0.318102          -0.645649
hessian_block                1      24           0.058861          -0.272310          -0.240081          -0.125168          -0.097543           0.418960           0.014635           0.327370           0.361308
hessian_block                2       2           2.560867          -0.125079          -0.531900          -0.125079           2.465216           0.131796          -0.531900           0.131796           3.900420
hessian_block                2       3           0.176839          -0.218311          -0.146966          -0.210509          -0.127734           0.142649           0.209765          -0.089688          -0.052069
hessian_block                2       4           0.697015           0.208546          -0.525478          -0.275931           0.138117           0.182860           0.289585           0.020099          -1.682655
hessian_block                2       5          -0.065585           0.267573           0.592585           0.670930          -0.463388          -0.459290           0.103765          -0.180713           0.380461
hessian_block                2       6          -0.132681           0.042561           0.480683           0.005910          -0.235800          -0.943591          -0.344587           0.024530           0.261027
hessian_block                2       7           0.076989          -0.046549           0.112253           0.036715           0.079337           0.068922          -0.016364           0.019297          -0.002836
hessian_block                2       8          -0.131827          -0.018345           0.081246           0.072460          -0.104511           0.010253          -0.056588           0.020005           0.033183
hessian_block                2       9          -0.044128           0.099689           0.110957          -0.023566          -0.009135          -0.020663          -0.025484           0.007710          -0.107722
hessian_block                2      10          -0.092410          -0.091816           0.110008          -0.015028          -0.090783          -0.026751           0.111120          -0.050671          -0.059786
hessian_block                2      11          -0.040089           0.086300           0.091679          -0.055531          -0.040340           0.007434           0.046972          -0.051523           0.223718
hessian_block                2      12           0.018650          -0.027213          -0.016387           0.052849           0.096794           0.053950           0.067039          -0.031054          -0.038283
hessian_block                2      13           0.049299          -0.099858           0.274884           0.146824          -0.019000          -0.404283          -0.201208          -0.131039           0.880700
hessian_block                2      14          -0.337444           0.340304           0.017305           0.112308          -0.065390          -0.123223           0.010091           0.009048          -0.393256
hessian_block                2      15          -0.319614          -0.087822          -0.168576           0.106296           0.205307           0.001035           0.398482           0.017965          -0.029920
hessian_block                2      16          -0.040680           0.038860          -0.208759           0.007451           0.253682           0.059826          -0.113471           0.116218           0.140354
hessian_block                2      17          -0.006294          -0.366035          -0.109161          -0.155859          -0.011238           0.010928           0.091592          -0.113385          -0.472504
hessian_block                2      18          -0.060867           0.148250           0.274733           0.330892          -0.094598           0.304299           0.008610           0.058714           0.827847
hessian_block                2      19          -0.140053           0.117356           0.004357           0.050320           0.216083           0.133125          -0.336439           0.096771           0.473787
hessian_block                2      20          -0.175177          -0.196525           0.383814          -0.741414           0.130947           0.814143           0.116050           0.154749          -0.831439
hessian_block                2      21           0.192741           0.357029          -0.177453           0.026062          -0.177143           0.233437          -0.159384           0.291434          -0.430650
hessian_block                2      22          -0.410395          -0.332432           0.056245          -0.123103           0.013731          -0.063321          -0.247175          -0.069732           0.292116
hessian_block                2      23           0.237804          -0.495766          -0.680067           0.052235          -0.090562          -0.220959           0.103571          -0.186991          -0.573439
hessian_block                2      24           0.031778           0.238009           0.173642          -0.038417           0.065135           0.509225           0.208194          -0.161500          -0.691516
hessian_block                3       3           2.334397          -0.126404           0.297844          -0.126404           2.737252          -0.350865           0.297844          -0.350865           4.352694
hessian_block                3       4           0.028013          -0.154517          -0.627911           0.195524          -0.034654           1.290437           0.221431          -0.039783           0.434108
hessian_block                3       5           0.209528          -0.134501           0.261790          -0.098056          -0.228474           0.043687          -0.056882           0.043492          -0.982410
hessian_block                3       6           0.366713          -0.688651          -0.444175           0.166544          -0.166747          -0.094758          -0.040692          -0.077175           0.171137
hessian_block                3       7          -0.000947           0.122623           0.073895          -0.100697           0.021329           0.101273          -0.043943           0.062921          -0.062130
hessian_block                3       8           0.005989           0.001775          -0.085611           0.118928           0.003291           0.081975          -0.026745           0.002584          -0.124897
hessian_block                3       9          -0.115437          -0.019834          -0.075969           0.022901          -0.143072          -0.085803           0.011790           0.025849           0.118568
hessian_block                3      10           0.050391           0.018044          -0.033736           0.081792           0.042757           0.065415           0.040351           0.035794          -0.026970
hessian_block                3      11          -0.128591          -0.001117          -0.009113           0.028139           0.035407           0.039787           0.023166           0.115015           0.073783
hessian_block                3      12          -0.029406           0.081763          -0.027020          -0.108448          -0.035995           0.147964          -0.001053           0.060769           0.154309
hessian_block                3      13           0.033435           0.342464           0.171277           0.012505           0.156958          -0.393895           0.000467          -0.040705           0.305159
hessian_block                3      14          -0.117908          -0.028265          -0.165112           0.107321           0.093036           0.272147           0.172298          -0.110493           0.196440
hessian_block                3      15          -0.007667           0.147688           0.167322           0.009079          -0.665802          -0.102377           0.166047          -0.359928          -0.530732
hessian_block                3      16          -0.030698          -0.005224          -0.399296          -0.222119           0.038882           0.308187          -0.019024          -0.034226           0.689369
hessian_block                3      17           0.186294           0.134682           0.211838           0.028675          -0.122245          -0.256508           0.009427           0.099861           0.234638
hessian_block                3      18          -0.260399           0.240299          -0.049488           0.125378          -0.226114          -0.376594          -0.136700          -0.136627          -0.662038
hessian_block                3      19           0.096844          -0.151810           0.282234          -0.402941           0.177632          -0.821219          -0.282745          -0.023790          -0.629391
hessian_block                3      20           0.254757           0.025136          -0.127688           0.042632           0.254571          -0.448598          -0.012769          -0.347874           0.352043
hessian_block                3      21          -0.639167           0.717871          -0.301870          -0.003988           0.164092           0.176975          -0.283651           0.178386          -0.844410
hessian_block                3      22          -0.034210           0.047763           0.249657          -0.168390          -0.165909           0.619359          -0.124048           0.415445          -0.936834
hessian_block                3      23          -0.178354           0.228651           0.226928           0.287846          -0.081582           0.102312           0.003138           0.177890           0.384449
hessian_block                3      24          -0.134162          -0.236659           0.343478           0.010115           0.367274           0.276801           0.090332           0.243359          -0.529352
hessian_block                4       4           9.747061           1.037875           1.067171           1.037875          11.626182           1.130155           1.067171           1.130155           7.700981
hessian_block                4       5           0.640112          -0.441216          -0.126386           0.681718          -0.866957          -0.376775          -0.663151           0.900100          -0.247117
hessian_block                4       6          -0.755751           1.076234          -0.803804          -0.776374          -1.700069           0.623884           0.329790           0.587021          -0.623529
hessian_block                4       7          -0.030399          -0.010515           0.021665           0.092017           0.019402          -0.017617          -0.068053          -0.000162           0.032940
hessian_block                4       8          -0.126586          -0.032617          -0.083342           0.041990           0.075788          -0.019302          -0.054453          -0.080921          -0.105073
hessian_block                4       9          -0.082393          -0.138925          -0.224893           0.090162          -0.134811          -0.153184          -0.023368           0.316061           0.194029
hessian_block                4      10          -0.205599          -0.069909          -0.105068          -0.238671          -0.106732          -0.074268           0.079733          -0.295157           0.046495
hessian_block                4      11          -0.087355           0.060347          -0.129815          -0.150315          -0.014098          -0.030226           0.173593           0.234678          -0.093689
hessian_block                4      12           0.150709          -0.082381           0.030745           0.155123           0.167938           0.035953           0.042602          -0.058231           0.058981
hessian_block                4      13           0.180309           0.353260          -0.720519           0.591699          -2.215452           1.476814          -0.655878           2.750033          -2.325093
hessian_block                4      14           0.253130           0.146583           0.449892           0.563374           0.080757           0.234196           0.670818          -0.227364           0.600164
hessian_block                4      15          -0.212807           0.303206           0.437983          -0.103010          -0.217362          -0.196794          -0.020682          -0.379886          -0.259759
hessian_block                4      16          -0.139118           0.689424           0.370626          -0.307442           0.487504          -0.022561           0.317643          -0.603571          -0.328782
hessian_block                4      17          -0.072423          -0.191640           0.430444          -0.288504           0.123056          -0.377777          -0.044521          -0.591257           0.965502
hessian_block                4      18           0.017364          -0.312574          -0.533916          -0.138930          -3.275122          -2.318858          -0.445008          -4.032057          -3.402260
hessian_block                4      19          -2.538657           2.106802           0.317911           2.498708          -1.576853          -0.312380           0.083562          -0.020886          -0.768919
hessian_block                4      20          -0.240236          -0.130317          -0.327931          -1.525172           0.288693          -0.586604           0.226202           0.246669           0.594475
hessian_block                4      21           0.625470          -1.027830           0.061763           0.267077          -0.354294          -0.381333           0.044798          -0.296090           0.424601
hessian_block                4      22          -4.800416          -3.161847          -0.317348          -4.081174          -2.660576           0.030024           0.459271           0.022174          -0.416319
hessian_block                4      23          -0.827108          -0.052895          -0.485536           0.584750           0.189481           0.425867          -0.273791           0.130853           0.196094
hessian_block                4      24          -0.091957          -0.010932          -0.184286           0.470049           2.027310           0.309515           0.059237          -0.140232           0.757345
hessian_block                5       5          12.726541          -0.039113           1.134090          -0.039113           9.496712           2.917872           1.134090           2.917872          12.034454
hessian_block                5       6          -0.684473          -1.676430           0.932158           1.026647          -0.089896          -1.214995           0.804672          -0.487583          -1.790566
hessian_block                5       7           0.020981           0.032904           0.032496           0.129505          -0.014809          -0.197122          -0.168501          -0.059804           0.069332
hessian_block                5       8           0.048956          -0.032036           0.013443           0.033249           0.015885          -0.018591          -0.067697          -0.086364          -0.065507
hessian_block                5       9          -0.034323           0.018140           0.092486          -0.097751           0.096860          -0.112529           0.001077          -0.072404           0.029973
hessian_block                5      10           0.011229          -0.066607          -0.118996          -0.062660           0.025147           0.027576          -0.056445           0.042084          -0.142224
hessian_block                5      11          -0.245805           0.073429           0.107378          -0.284094          -0.267642          -0.475027           0.179326           0.071648           0.158316
hessian_block                5      12           0.068407           0.157407          -0.133192           0.056883           0.179020           0.032321           0.109120           0.110953          -0.192738
hessian_block                5      13           0.113404          -0.104200          -0.166313           0.420608          -0.236010          -0.606763          -0.353819           0.398878           0.850324
hessian_block                5      14          -2.007428          -2.227578          -3.684839          -1.837472          -1.156316          -2.901494          -3.692672          -2.751358          -6.374790
hessian_block                5      15           0.409297           0.032888          -0.550354          -0.079411           0.028213           0.312272          -0.627951          -0.171923           1.308383
hessian_block                5      16          -1.721311          -0.387524           2.351720          -0.755995          -0.186066           0.809321           2.613276           0.034597          -3.639888
hessian_block                5      17           0.037640           0.736134          -0.008706           0.222313          -0.368748           0.188543           0.009017           1.114729           0.568877
hessian_block                5      18          -0.035010           0.100313           0.001955           0.426942           0.235289          -0.442551           0.403810           0.258487          -0.471111
hessian_block                5      19          -0.122482          -0.762246           0.466958           0.524858           0.810122           0.079015          -0.180845           0.530234           0.296203
hessian_block                5      20           0.075920          -0.815916           0.132336          -0.633297          -4.774523          -0.484688           0.005532           0.068008          -0.605893
hessian_block                5      21          -0.325200           0.649207           0.094254          -0.192560           0.504803          -0.282897          -0.319915          -0.327994           0.562943
hessian_block                5      22          -0.527995           0.285363           0.232141          -0.419846           0.305953           0.341570           0.355179          -0.147857           0.160037
hessian_block                5      23          -6.949892           2.581724          -0.362434           2.726057          -0.769751           0.033809          -0.161050           0.023819          -0.723936
hessian_block                5      24           0.678921          -0.027194          -0.237699          -0.943089          -0.025079           1.242738          -0.201947           0.041931           0.854461
hessian_block                6       6          10.189678          -0.580080           0.000039          -0.580080           7.625785           0.193660           0.000039           0.193660           7.435377
hessian_block                6       7          -0.170466          -0.222522          -0.083709          -0.134898          -0.088545           0.121703           0.098387          -0.166741          -0.081744
hessian_block                6       8           0.150438           0.010836           0.107793           0.029156           0.036839           0.039800           0.166432           0.020846           0.113882
hessian_block                6       9           0.049346          -0.036507          -0.012466           0.308923           0.076053           0.155191          -0.011210          -0.020469           0.019046
hessian_block                6      10           0.188575           0.102620           0.185265          -0.004916           0.076894          -0.008664          -0.205314           0.055320          -0.138182
hessian_block                6      11          -0.053590          -0.084953          -0.041236           0.105272           0.142082           0.172365          -0.197946          -0.271297          -0.017359
hessian_block                6      12          -0.228785          -0.116201           0.116884          -0.220445          -0.196169          -0.008477          -0.339098           0.013527           0.067177
hessian_block                6      13          -0.267015          -0.420145           0.063683          -0.353707           0.451308          -0.184459           0.718470          -0.787835           0.613159
hessian_block                6      14          -0.025226           0.134713           0.384242          -0.409892          -0.138561           0.056534          -0.088782           0.519100           0.748281
hessian_block                6      15          -2.023021           1.074042           1.711965           1.440470           0.034555          -0.382678           3.156002          -0.877396          -2.465401
hessian_block                6      16           0.726706          -0.308543          -0.525889           0.190015          -0.593987          -0.256706          -1.004331           0.675256           0.968781
hessian_block                6      17          -1.915043           0.806205          -1.302800           1.707692          -0.148285           1.458125          -3.163994           1.038510          -2.963012
hessian_block                6      18          -0.505928          -0.423924          -0.003530           0.414628           0.208703          -0.136370           0.258388           0.162965          -0.062162
hessian_block                6      19           0.880600          -0.319011          -0.166904          -1.149105          -0.103529           0.289417           0.080257          -0.058395           0.651709
hessian_block                6      20           0.558477           0.138284          -0.256579           1.576564          -0.106419           0.264506           0.077467           0.671138           0.502339
hessian_block                6      21          -4.380051          -1.552209          -0.827079          -1.491439          -0.422830          -0.046543           0.149389           0.053615          -0.470071
hessian_block                6      22          -0.058773           1.396169          -0.226618          -0.367596           0.751410          -0.725060          -0.026872           0.043244           0.581207
hessian_block                6      23           0.066186          -0.576255           0.010750           0.138509           0.625481           0.244595          -0.065572           0.491546           0.725061
hessian_block                6      24          -0.059908           0.364838           0.371574          -0.175713          -4.473920          -1.083862          -0.069336           0.201510          -0.716221
hessian_block                7       7           8.182008           0.220982           1.590661           0.220982           6.645210           0.035994           1.590661           0.035994           7.743577
hessian_block                7       8          -0.054927           0.238558          -0.290989          -0.367761           0.194164           0.030459          -0.049578           0.097963          -0.097876
hessian_block                7       9           0.459626          -0.279007           0.222919           0.231745           0.070914          -0.136841          -0.033375           0.096412          -0.068574