lattice_vector      5.58707557     -3.20253157      0.00061723
lattice_vector     -0.02089232      6.44031428     -0.00895288
lattice_vector      0.00763290      0.01834056     15.84531271
atom_frac       0.90672739      0.66661469      0.24925907 Ba
atom_frac       0.33325813      0.24005707      0.58259275 Ba
atom_frac       0.75981402      0.09305943      0.91590328 Ba
atom_frac       0.33328912      0.37108684      0.08260506 Sn
atom_frac       0.62883737      0.96207072      0.41593433 Sn
atom_frac       0.03781073      0.66663203      0.74926733 Sn
atom_frac       0.26977886      0.23216207      0.33737754 Cu
atom_frac       0.76768967      0.03747649      0.67071709 Cu
atom_frac       0.96245317      0.73008348      0.00409336 Cu
atom_frac       0.70405449      0.10098562      0.16118268 Cu
atom_frac       0.89897504      0.60300411      0.49455148 Cu
atom_frac       0.39689653      0.29580851      0.82782864 Cu
atom_frac       0.39450973      0.16722038      0.20302218 S
atom_frac       0.83272100      0.22724923      0.53637392 S
atom_frac       0.77273840      0.60536669      0.86970535 S
atom_frac       0.89391480      0.16597679      0.29551925 S
atom_frac       0.83389852      0.72784690      0.62885259 S
atom_frac       0.27203423      0.10594629      0.96216188 S
atom_frac       0.98425331      0.43108116      0.08000053 S
atom_frac       0.56883975      0.55307036      0.41334671 S
atom_frac       0.44686630      0.01565677      0.74664405 S
atom_frac       0.68226071      0.78014867      0.08518885 S
atom_frac       0.21979377      0.90200181      0.41852335 S
atom_frac       0.09791939      0.31768878      0.75187254 S
# 
