# 
# This is the geometry file that corresponds to the current relaxation step.
# If you do not want this file to be written, set the "write_restart_geometry" flag to .false.
# 
lattice_vector      3.37180000     -5.55525000      0.00000000
lattice_vector      3.37180000      5.55525000      0.00000000
lattice_vector      0.00000000      0.00000000     11.22750000
atom_frac       0.36508847      0.36509717     -0.00027472 Ba
atom_frac       0.36508964      0.36509891      0.49972523 Ba
atom_frac       0.92214180      0.62485080      0.24971885 Sn
atom_frac       0.62484303      0.92215229      0.74973194 Sn
atom_frac       0.87137215      0.36389971      0.07084888 Se
atom_frac       0.36389039      0.87137994      0.92860168 Se
atom_frac       0.87137110      0.36389354      0.42860339 Se
atom_frac       0.36388436      0.87137985      0.57084736 Se
atom_frac       0.55317781      0.67334360      0.24972654 Se
atom_frac       0.67333481      0.55318641      0.74972419 Se
atom_frac       0.25108128      0.03432707      0.24972636 Se
atom_frac       0.03431670      0.25108898      0.74972409 Se
atom_frac       0.55536039      0.98969194      0.12889074 Cu
atom_frac       0.98968299      0.55536759      0.87055964 Cu
atom_frac       0.55535297      0.98968571      0.37056358 Cu
atom_frac       0.98967657      0.55536209      0.62888712 Cu
# 
# What follows is the current estimated Hessian matrix constructed by the BFGS algorithm.
# This is NOT the true Hessian matrix of the system.
# If you do not want this information here, switch it off using the "hessian_to_restart_geometry" keyword.
# 
trust_radius             0.0044567550
hessian_block                1       1           1.972189          -0.001969          -0.003388          -0.001969           2.058637          -0.002247          -0.003388          -0.002247           2.039531
hessian_block                1       2          -0.082757           0.003282           0.003828          -0.002761           0.000446           0.000615           0.003857          -0.000699          -0.000963
hessian_block                1       3          -0.269167          -0.001785           0.003490          -0.212538           0.003085           0.002701          -0.253261           0.044098           0.060527
hessian_block                1       4          -0.247206          -0.004978          -0.000888           0.191130           0.000563           0.002330           0.250428          -0.043691          -0.059979
hessian_block                1       5           0.009287           0.007293          -0.008012           0.213747          -0.035826          -0.019441           0.201585          -0.027627          -0.038517
hessian_block                1       6           0.002245          -0.019013          -0.008159          -0.201591          -0.010950           0.014639          -0.186593           0.023147           0.031637
hessian_block                1       7          -0.062638           0.007204           0.009836           0.051161           0.012909           0.017754           0.064072          -0.019818          -0.026972
hessian_block                1       8          -0.067747           0.008044           0.010991          -0.042049          -0.014665          -0.020178          -0.076024           0.021901           0.029841
hessian_block                1       9          -0.006811           0.002049          -0.002048           0.187367          -0.001360          -0.000129           0.015767          -0.006040          -0.015032
hessian_block                1      10          -0.006308           0.005113           0.010315          -0.183440          -0.000715          -0.005967          -0.014993           0.001047          -0.005306
hessian_block                1      11           0.181011          -0.001631          -0.001874           0.122951          -0.000759           0.002367           0.038525          -0.003665          -0.015158
hessian_block                1      12           0.172013           0.002467          -0.007105          -0.121927          -0.001720           0.003182          -0.039074           0.009234           0.002559
hessian_block                1      13           0.108563          -0.004312          -0.003665          -0.205499          -0.004073           0.002668          -0.023205           0.003765           0.001169
hessian_block                1      14           0.108575          -0.001885          -0.004180           0.206492          -0.005592           0.001708           0.022655           0.000750          -0.003131
hessian_block                1      15           0.095459          -0.000057           0.000281          -0.203993           0.000213          -0.000290          -0.000194           0.002209           0.002950
hessian_block                1      16           0.093293           0.000175           0.000577           0.202918          -0.000194           0.000288          -0.000157          -0.002364          -0.003155
hessian_block                2       2           1.976862           0.002118          -0.003800           0.002118           2.058531           0.002278          -0.003800           0.002278           2.039641
hessian_block                2       3          -0.268744           0.002503          -0.002846          -0.185813           0.000994          -0.003754           0.228961           0.040885          -0.064228
hessian_block                2       4          -0.281620          -0.000471           0.001796           0.204369           0.002398          -0.001585          -0.227442          -0.040523           0.063623
hessian_block                2       5          -0.050147          -0.005588           0.009216           0.056795          -0.011712           0.019412          -0.085540          -0.023854           0.038741
hessian_block                2       6          -0.045958          -0.004629           0.007713          -0.066673           0.009838          -0.016470           0.073480           0.021548          -0.035124
hessian_block                2       7           0.009542           0.020645          -0.011328           0.209794          -0.009628          -0.017974          -0.158263          -0.018226           0.027170
hessian_block                2       8           0.013630          -0.005869          -0.010992          -0.219947          -0.036722           0.022556           0.169129           0.022165          -0.033682
hessian_block                2       9           0.032530           0.001571           0.001194           0.189631           0.001304           0.001093          -0.010533          -0.000765          -0.005040
hessian_block                2      10           0.033287           0.004644          -0.011164          -0.194278          -0.003315           0.005072           0.011570           0.005801          -0.015357
hessian_block                2      11           0.154303          -0.006456           0.002335           0.126980          -0.001072          -0.003194          -0.038745          -0.008763           0.003075
hessian_block                2      12           0.157617          -0.002444           0.007469          -0.126146          -0.001404          -0.002356           0.038382           0.003226          -0.015723
hessian_block                2      13           0.076583          -0.002418           0.004131          -0.202618          -0.000572           0.000174          -0.006360           0.001454          -0.002302
hessian_block                2      14           0.079294          -0.002169           0.003769           0.203573           0.000589          -0.000169           0.007343          -0.001315           0.002100
hessian_block                2      15           0.097684          -0.000533          -0.000946          -0.209392          -0.005951          -0.001202           0.023489          -0.000142          -0.004282
hessian_block                2      16           0.097893           0.001857          -0.000404           0.208326          -0.003725          -0.003183          -0.025500          -0.004386           0.002350
hessian_block                3       3           9.190554           0.649639           0.080317           0.649639           7.322603           0.291669           0.080317           0.291669           7.768736
hessian_block                3       4           4.863023           0.428546          -0.209961          -0.446858          -3.287713           0.041348          -0.062463          -0.292603          -4.004564
hessian_block                3       5          -0.608722          -0.653371          -1.028526          -1.080839          -1.316053          -1.711075          -1.699890          -1.762154          -3.293517
hessian_block                3       6          -0.352337          -0.385896          -0.487672           0.803917           1.012515           1.029811           1.225000           1.246079           2.206572
hessian_block                3       7          -0.576489          -0.557054           1.110490          -1.042914          -1.142269           1.699957           1.619551           1.454182          -2.686422
hessian_block                3       8          -0.333746          -0.287220           0.738915           0.772938           0.841266          -1.363294          -1.160595          -0.939523           2.014696
hessian_block                3       9          -0.831410           1.482360           0.347986           2.321987          -3.521124           0.007514          -0.009512          -0.023039          -0.326418
hessian_block                3      10          -0.566752           0.887031           0.350344          -1.722697           2.134425          -0.079224           0.009037           0.024562           0.325711
hessian_block                3      11          -4.827240          -0.505177          -0.292850          -1.273268           0.117171           0.024973          -0.010352          -0.037015          -0.593802
hessian_block                3      12          -3.261027          -0.222744          -0.189559           1.017109          -0.166249          -0.026539           0.009792           0.038356           0.592449
hessian_block                3      13          -0.043264          -0.118610          -0.255679           0.133091          -0.021432          -0.013086           0.144551           0.148037           0.150707
hessian_block                3      14          -0.040085          -0.118317          -0.233453          -0.131923           0.020969           0.013830          -0.145815          -0.147086          -0.137058
hessian_block                3      15          -0.038048          -0.101043           0.036751           0.131205          -0.022903          -0.067229          -0.138341          -0.121768           0.197619
hessian_block                3      16          -0.036549          -0.099793           0.057197          -0.132103           0.024714           0.066360           0.138076           0.121356          -0.211009
hessian_block                4       4           9.140311          -0.616768           0.229232          -0.616768           7.278478          -0.041846           0.229232          -0.041846           7.696824
hessian_block                4       5          -0.326697           0.343012           0.575120          -0.726509           0.920420           1.200634          -1.068730           1.056691           2.406525
hessian_block                4       6          -0.551921           0.603760           0.928615           0.982194          -1.211070          -1.514292           1.502457          -1.553458          -3.042012
hessian_block                4       7          -0.383218           0.348651          -0.657410          -0.862075           0.945811          -1.193518           1.294365          -1.099927           1.811846
hessian_block                4       8          -0.623269           0.608169          -1.182570           1.125594          -1.239754           1.852712          -1.745358           1.599274          -2.865023
hessian_block                4       9          -0.598565          -0.862149          -0.348796           1.729764           2.145155           0.002855           0.014005          -0.003539           0.320336
hessian_block                4      10          -0.853990          -1.447529          -0.350986          -2.310378          -3.511717           0.068543          -0.014546           0.002512          -0.325868
hessian_block                4      11          -3.226147           0.217899           0.279004          -1.016864          -0.162360          -0.028683           0.032209          -0.011971           0.585548
hessian_block                4      12          -4.780728           0.455313           0.176382           1.267729           0.120047           0.030279          -0.033148           0.010811          -0.589954
hessian_block                4      13          -0.024323           0.097600           0.253831           0.136079           0.021650           0.014475           0.133596          -0.134823          -0.148222
hessian_block                4      14          -0.023930           0.096802           0.230517          -0.132945          -0.020653          -0.013536          -0.133257           0.135133           0.136173
hessian_block                4      15          -0.040336           0.104301          -0.037255           0.137960           0.018849           0.066471          -0.152434           0.137319          -0.195467
hessian_block                4      16          -0.041385           0.102300          -0.056206          -0.136879          -0.020106          -0.067279           0.150663          -0.138268           0.210213
hessian_block                5       5           5.868907           1.172125          -0.430368           1.172125           3.192184           1.549807          -0.430368           1.549807           7.606286
hessian_block                5       6           0.233609           0.419115           0.774409          -0.421681          -0.726184          -1.326837          -0.801070          -1.370008          -2.588169
hessian_block                5       7           0.071533           0.073855           0.085140           0.102435           0.058674          -0.011084          -0.226904          -0.162766          -0.173146
hessian_block                5       8           0.059465           0.049167           0.036748          -0.079068          -0.008740           0.109075           0.198723           0.103476           0.054724
hessian_block                5       9           0.085446          -0.187661          -0.023843          -0.153328           0.015873          -0.380476           0.047312           0.095781           0.195464
hessian_block                5      10           0.085437          -0.186214          -0.026017           0.163172           0.008309           0.423146          -0.047860          -0.096634          -0.196294
hessian_block                5      11          -0.101835           0.341695           0.135866           0.003367           0.028700           0.152265           0.083441           0.176395           0.353498
hessian_block                5      12          -0.117096           0.304711           0.069074          -0.002857          -0.025847          -0.149743          -0.085137          -0.178430          -0.355368
hessian_block                5      13          -2.898310          -0.282199           1.056103          -0.350620           0.077034           0.105093           0.854154           0.002384          -0.440002
hessian_block                5      14          -0.352014          -0.093268           0.987930          -0.124868          -0.177194           0.285703           0.858118           0.385463          -1.578709
hessian_block                5      15           0.022018          -0.034487           0.000144          -0.008471           0.140299           0.034380          -0.021400          -0.003638          -0.045986
hessian_block                5      16           0.019119          -0.040032          -0.012611           0.008447          -0.139939          -0.034385           0.023193           0.008642           0.054471
hessian_block                6       6           5.838206          -1.117050           0.520489          -1.117050           3.084222           1.371396           0.520489           1.371396           7.330221
hessian_block                6       7           0.085258          -0.102190          -0.120199           0.127665          -0.110673          -0.051754          -0.264705           0.241371           0.267722
hessian_block                6       8           0.075339          -0.081415          -0.075760          -0.108481           0.068580          -0.037552           0.240623          -0.190418          -0.160694
hessian_block                6       9           0.090746           0.172396           0.008960          -0.144608          -0.022050           0.369405           0.040409          -0.080578          -0.177340
hessian_block                6      10           0.090734           0.174408           0.008546           0.153828           0.003834          -0.409589          -0.039593           0.082139           0.177895
hessian_block                6      11          -0.118880          -0.319486          -0.104260           0.000553          -0.025553          -0.147599           0.070944          -0.150997          -0.321008
hessian_block                6      12          -0.132464          -0.290577          -0.045270          -0.000352           0.026469           0.147099          -0.070008           0.149704           0.321361
hessian_block                6      13          -0.354539           0.096728          -0.987378           0.124308          -0.175743           0.285498          -0.855920           0.382042          -1.579692
hessian_block                6      14          -2.903861           0.300799          -1.026936           0.351167           0.077019           0.105448          -0.858548           0.012837          -0.423610
hessian_block                6      15           0.023338           0.032670          -0.000971          -0.010513          -0.137145          -0.031550          -0.017195          -0.005008           0.035696
hessian_block                6      16           0.020484           0.037551           0.009505           0.010146           0.136893           0.031890           0.018600           0.000662          -0.043457
hessian_block                7       7           5.888976           1.193186           0.480085           1.193186           3.185547          -1.364346           0.480085          -1.364346           6.969724
hessian_block                7       8           0.281929           0.492006          -0.814255          -0.497096          -0.823706           1.327174           0.812211           1.309800          -2.177802
hessian_block                7       9           0.194067           0.020575          -0.342577          -0.150864           0.016808           0.378014          -0.052942          -0.096011           0.145620
hessian_block                7      10           0.194754           0.023336          -0.342750           0.138549          -0.035677          -0.344859           0.054457           0.095777          -0.147473
hessian_block                7      11          -0.197677           0.175566           0.170137           0.010372           0.045781          -0.179609          -0.097317          -0.176548           0.269261
hessian_block                7      12          -0.181044           0.200446           0.127901          -0.010361          -0.043885           0.178782           0.098693           0.178696          -0.270442
hessian_block                7      13          -0.015749          -0.099385           0.096950          -0.022063           0.117107           0.008338           0.017378          -0.010171           0.005556
hessian_block                7      14          -0.011763          -0.093810           0.088009           0.022353          -0.117816          -0.008191          -0.015150           0.013946          -0.011567
hessian_block                7      15          -2.924061          -0.350533          -0.917411          -0.366463           0.056313          -0.068244          -0.842744           0.012923          -0.437480
hessian_block                7      16          -0.373420          -0.147453          -0.874205          -0.108725          -0.155295          -0.321875          -0.871200          -0.407446          -1.565596
hessian_block                8       8           5.915082          -1.244823          -0.413748          -1.244823           3.286274          -1.499253          -0.413748          -1.499253           7.147435
hessian_block                8       9           0.200878          -0.034407           0.356754          -0.150350          -0.018202          -0.374860          -0.059759           0.108579          -0.161015
hessian_block                8      10           0.201533          -0.033684           0.359481           0.137683           0.042622           0.339822           0.060018          -0.109238           0.162833
hessian_block                8      11          -0.203683          -0.158978          -0.188464           0.010315          -0.042759           0.178095          -0.109887           0.201834          -0.297955
hessian_block                8      12          -0.185816          -0.191347          -0.139358          -0.010601           0.044628          -0.179271           0.108686          -0.200787           0.297784
hessian_block                8      13          -0.020458           0.110528          -0.110124          -0.022553          -0.118782          -0.008263           0.020455           0.004052           0.001788
hessian_block                8      14          -0.016450           0.104291          -0.098941           0.022505           0.119608           0.007773          -0.017931          -0.008346           0.004759
hessian_block                8      15          -0.375792           0.153265           0.867123           0.107256          -0.155310          -0.324441           0.872496          -0.411979          -1.564072
hessian_block                8      16          -2.920896           0.343266           0.928568           0.367688           0.055661          -0.066277           0.836592           0.024644          -0.453617
hessian_block                9       9           3.662075          -0.164043          -0.029176          -0.164043           8.977055          -0.004214          -0.029176          -0.004214           3.782467
hessian_block                9      10           0.398512          -1.268667          -0.028081           1.264370          -2.630917           0.008434           0.028598           0.000121          -0.026052
hessian_block                9      11           0.016708          -0.382697           0.026522           0.267961          -0.599484          -0.002291          -0.049024          -0.003313           0.049368
hessian_block                9      12           0.031818          -0.394379           0.018253          -0.267629           0.596582           0.002415           0.049749           0.002535          -0.047408
hessian_block                9      13          -0.581062          -0.828988           0.671223          -0.788001          -1.199654           1.131513           0.644558           1.063542          -0.879748
hessian_block                9      14          -0.080555           0.020303           0.017337          -0.061734          -0.280944          -0.003610           0.006103           0.061135           0.010887
hessian_block                9      15          -0.557486          -0.829498          -0.654942          -0.788257          -1.196573          -1.118859          -0.611411          -1.060240          -0.882991
hessian_block                9      16          -0.056891           0.018371          -0.005884          -0.057401          -0.282470          -0.007775          -0.037026          -0.062982           0.016900
hessian_block               10      10           3.657899           0.149295           0.028650           0.149295           8.958855          -0.005168           0.028650          -0.005168           3.782256
hessian_block               10      11           0.013827           0.380102          -0.026531           0.264122           0.591833           0.001131          -0.049350           0.013819          -0.047629
hessian_block               10      12           0.029239           0.394444          -0.018182          -0.267267          -0.598181          -0.001261           0.050077          -0.013075           0.049829
hessian_block               10      13          -0.081814          -0.015455          -0.020359           0.062166          -0.281576          -0.001386          -0.004981           0.058577           0.012254
hessian_block               10      14          -0.580212           0.832895          -0.669712           0.784527          -1.197971           1.127953          -0.642832           1.064828          -0.878127
hessian_block               10      15          -0.059905          -0.017923           0.003268           0.059689          -0.281433          -0.005576           0.036924          -0.066796           0.015651
hessian_block               10      16          -0.556239           0.829833           0.656181           0.789028          -1.198376          -1.121780           0.611825          -1.057563          -0.884321
hessian_block               11      11           7.363270          -0.385329           0.041667          -0.385329           5.127419          -0.004445           0.041667          -0.004445           3.797558
hessian_block               11      12           3.100188           0.820256           0.026327          -0.815884           0.122511           0.002736          -0.041294           0.003183          -0.086623
hessian_block               11      13          -0.200042           0.628380           0.571142           0.435000          -1.305448          -1.159431           0.403053          -1.092232          -0.868939
hessian_block               11      14           0.142059          -0.103906           0.035113           0.295518          -0.296248           0.000532           0.128147          -0.063296           0.019847
hessian_block               11      15          -0.218229           0.626671          -0.537458           0.437482          -1.304060           1.167859          -0.429674           1.098452          -0.878030
hessian_block               11      16           0.122367          -0.102562          -0.007237           0.292376          -0.295672          -0.007026          -0.101785           0.060883           0.030988
hessian_block               12      12           7.331217           0.387759          -0.026131           0.387759           5.127713          -0.004196          -0.026131          -0.004196           3.797843
hessian_block               12      13           0.136919           0.101552          -0.038177          -0.297364          -0.293261          -0.000383          -0.124149          -0.063695           0.021755
hessian_block               12      14          -0.207410          -0.626503          -0.567671          -0.434206          -1.304889          -1.159152          -0.408176          -1.092721          -0.867562
hessian_block               12      15           0.126044           0.103292           0.004724          -0.296382          -0.296328          -0.007939           0.106807           0.059261           0.029035
hessian_block               12      16          -0.219471          -0.627914           0.540538          -0.435951          -1.306186           1.168217           0.425716           1.096027          -0.879537
hessian_block               13      13           6.148744           0.482175          -1.234545           0.482175           4.697614          -0.399281          -1.234545          -0.399281           6.471764
hessian_block               13      14          -0.068509           0.169210           0.004502          -0.166837           0.489074           0.036753          -0.004500           0.036730           0.016645
hessian_block               13      15          -0.092795           0.174517           0.013793           0.172078          -0.491802          -0.039036          -0.022656           0.031109          -0.735220
hessian_block               13      16          -0.089944           0.172172           0.013120          -0.170837           0.489864           0.038633           0.023704          -0.033768          -0.027512
hessian_block               14      14           6.139682          -0.484885           1.230794          -0.484885           4.691408          -0.397977           1.230794          -0.397977           6.471531
hessian_block               14      15          -0.090438          -0.175139          -0.012498           0.174768           0.494638           0.038825          -0.020781          -0.031245          -0.026202
hessian_block               14      16          -0.094381          -0.173598          -0.014452          -0.174324          -0.491996          -0.038905           0.023703           0.034180          -0.735976
hessian_block               15      15           6.120836           0.489434           1.225283           0.489434           4.686277           0.388050           1.225283           0.388050           6.477301