# 
# This is the geometry file that corresponds to the current relaxation step.
# If you do not want this file to be written, set the "write_restart_geometry" flag to .false.
# 
lattice_vector      5.47060676     -0.00067832      0.00105902
lattice_vector      0.00069054      5.47001264      0.00080999
lattice_vector     -0.00113645     -0.00055618     10.94033300
atom_frac      -0.00022743     -0.00038186      0.49994967 Sn
atom_frac       0.49981884      0.49965217     -0.00005248 Sn
atom_frac      -0.00017967      0.49969056      0.24999548 Zn
atom_frac       0.49978494     -0.00036692      0.74991744 Zn
atom_frac      -0.00024821     -0.00041126     -0.00005440 Cu
atom_frac       0.49981885      0.49964624      0.49992183 Cu
atom_frac      -0.00026024      0.49968706      0.74995396 Cu
atom_frac       0.49975216     -0.00026638      0.24991915 Cu
atom_frac       0.24118720      0.23346618      0.12942106 S
atom_frac       0.74119521      0.73340140      0.62941799 S
atom_frac       0.25829951      0.26583711      0.62941693 S
atom_frac       0.75828302      0.76579808      0.12946357 S
atom_frac       0.73359508      0.25813852      0.37045763 S
atom_frac       0.23357654      0.75814576      0.87045117 S
atom_frac       0.26596626      0.74115785      0.37046249 S
atom_frac       0.76593374      0.24105088      0.87045283 S
# 
# What follows is the current estimated Hessian matrix constructed by the BFGS algorithm.
# This is NOT the true Hessian matrix of the system.
# If you do not want this information here, switch it off using the "hessian_to_restart_geometry" keyword.
# 
trust_radius             0.0294702116
hessian_block                1       1          10.918839           1.084198          -0.856161           1.084198          11.630658           0.719295          -0.856161           0.719295          14.044650
hessian_block                1       2          -1.090278          -0.644906           0.037321          -0.392480          -1.635313           0.871430           0.490023          -0.894770          -0.687653
hessian_block                1       3           0.701239          -0.109975          -0.065855           0.477533          -1.340016          -0.264389           0.191374           0.009693          -0.946515
hessian_block                1       4          -0.456702          -0.810547          -0.002722           0.461940           1.032110           0.026173           0.017265           0.209065          -1.150449
hessian_block                1       5           0.170747           0.147358          -0.076849           0.076794           0.164867          -0.106769           0.040991           0.005417           0.005035
hessian_block                1       6          -0.454655          -0.456218          -0.864075           0.330555          -0.560423           0.061751          -0.023848          -1.787651           0.898225
hessian_block                1       7           0.431334           0.505121           0.160680          -0.391323          -0.563330           0.107864          -0.191735           0.027014          -0.670527
hessian_block                1       8          -0.125924           0.578446           0.735978          -0.236926           0.290721          -0.598295           0.300149           0.197807          -0.399842
hessian_block                1       9           0.126285          -0.788932          -0.564809          -0.129186           0.333149           0.304380          -0.161039          -0.127692           0.025277
hessian_block                1      10          -2.606683          -2.260706           3.040948          -2.694817          -3.109446           2.867319           2.576777           3.294650          -2.249695
hessian_block                1      11          -2.323458          -2.439810          -2.730431          -2.319090          -2.550454          -2.568627          -1.812586          -1.081419          -2.824177
hessian_block                1      12           0.494719           0.694326          -0.572827           0.320172           1.408633          -0.132060           0.472070           0.711121           0.312184
hessian_block                1      13          -2.192035           1.358266          -2.053594           1.669690          -1.191267           2.003860          -2.012305           1.281921          -2.825328
hessian_block                1      14          -0.128456           0.104735           0.311415           0.506865           0.483687          -0.656839          -0.241505          -0.464424           0.834786
hessian_block                1      15          -2.062683           3.029183           3.411421           1.726675          -2.458911          -3.035837           1.976438          -1.957433          -2.782331
hessian_block                1      16           0.739229           0.269556          -0.093344          -0.377666           0.290680           0.079256          -0.500355          -0.085054           0.483535
hessian_block                2       2          14.424871           1.811775           0.381110           1.811775          12.565527          -0.484696           0.381110          -0.484696          11.883976
hessian_block                2       3          -0.824887          -0.680102           0.153432           1.312280           1.818977          -0.209378           0.166818          -0.324367          -0.676309
hessian_block                2       4           1.817484           0.289908          -0.044707           0.225823          -0.759532           0.233392          -0.109227           0.098473          -0.402231
hessian_block                2       5          -1.017393          -0.288036          -0.005893          -0.289816          -0.744093           0.087457          -0.029482          -0.149113           0.608568
hessian_block                2       6           1.516197           0.318033          -0.203163          -0.000900           0.389524           0.143988           1.052671           0.008557           0.268459
hessian_block                2       7          -0.134506          -0.026662           0.509650          -0.745319           0.199378          -0.328229           0.210904          -0.082639          -0.171978
hessian_block                2       8           0.685626          -0.086670           0.158048          -0.895233          -0.555480          -0.428881          -0.011325           0.075683          -0.130488
hessian_block                2       9          -2.473883          -2.670211           2.419216          -3.272159          -3.413664           2.473185           2.713897           2.671293          -2.083997
hessian_block                2      10          -0.548873           0.370944          -0.171350           0.359661           0.505923           0.077515          -1.073561          -0.878161          -0.031361
hessian_block                2      11           0.243092          -0.202830           0.286066          -0.083376           0.725097           0.272988           0.023976          -0.220763           0.909363
hessian_block                2      12          -3.485570          -1.920795          -2.231043          -2.753864          -3.634208          -2.002050          -2.855775          -2.327276          -2.616408
hessian_block                2      13           0.190588          -0.333681          -0.476290          -0.213449           0.229321           0.279502           0.372054          -0.319040          -0.229578
hessian_block                2      14          -3.600541           1.618071          -3.011614           2.247252          -2.276896           2.799521          -2.470416           2.242617          -2.786386
hessian_block                2      15          -0.702965           0.258567          -0.482232           0.345670          -0.111428           0.411651          -0.802146           0.073487           0.363084
hessian_block                2      16          -3.210731           1.616151           2.334780           1.874076          -2.092212          -2.294500           2.127158          -2.034699          -2.312154
hessian_block                3       3           8.528227          -0.171141          -0.194571          -0.171141           9.089277          -0.117478          -0.194571          -0.117478           7.863147
hessian_block                3       4          -0.091795           0.017748           0.000002          -0.052003          -0.217568          -0.035468          -0.155450          -0.013085           0.084391
hessian_block                3       5           0.079517          -0.198622           0.016402          -0.037105          -0.233333           0.014154          -0.076933          -0.066740          -0.145370
hessian_block                3       6          -0.205703           0.175262           0.330070          -0.138165          -0.195352          -0.280603           0.385596           0.697914           0.620215
hessian_block                3       7           0.190376          -0.036516           0.245118          -0.102726          -0.524379          -0.324047          -0.188285          -0.016647           0.057775
hessian_block                3       8           0.202285          -0.591522           0.088924          -0.319988          -0.418363          -0.183801          -0.032857           0.049465           0.027849
hessian_block                3       9          -1.143099           1.105000           1.289191           2.227205          -2.756082          -1.647128           1.184059          -0.935386          -1.283188
hessian_block                3      10          -0.176659          -0.059606          -0.571108          -0.036931           0.341050          -0.173909          -0.080954          -0.140542          -0.168618
hessian_block                3      11          -0.199105           0.155253           0.091313           0.135963           0.400501           0.401271          -0.140080           0.021422           0.168505
hessian_block                3      12          -1.265857           1.505658          -1.249698           1.835343          -2.548578           1.800026          -1.070014           1.169866          -1.242839
hessian_block                3      13          -1.950958          -1.693030           1.885516          -1.394030          -1.180440           1.391497           1.502875           1.030957          -1.276502
hessian_block                3      14           0.122064          -0.143300           0.127790           0.081377           0.117118           0.122229           0.121126           0.216433           0.035975
hessian_block                3      15          -2.143817          -2.311154          -2.152344          -1.275244          -0.795580          -0.853445          -1.356755          -1.446012          -1.551415
hessian_block                3      16           0.150984           0.109248          -0.197434           0.248163          -0.087628           0.439552           0.115966          -0.153816           0.306654
hessian_block                4       4           8.797171          -0.014053           0.014856          -0.014053           8.913886          -0.012730           0.014856          -0.012730           8.169170
hessian_block                4       5          -0.252289          -0.015374          -0.022781          -0.094245           0.062063          -0.083183          -0.019086           0.000776          -0.057476
hessian_block                4       6           0.337319          -0.040342          -0.025306          -0.313291          -0.055108          -0.058965           0.374043          -0.014335          -0.280751
hessian_block                4       7          -0.144156           0.081965          -0.005372          -0.449085          -0.098561           0.091222           0.108705           0.012017           0.111077
hessian_block                4       8          -0.501084           0.251335           0.177230          -0.162687          -0.083220          -0.070724          -0.041220          -0.039731          -0.032257
hessian_block                4       9          -0.314948           0.091574          -0.119468          -0.616623           0.328536          -0.013341           0.534350          -0.066617           0.100460
hessian_block                4      10          -1.378521           1.241965           1.229701           2.012056          -2.301170          -1.909009           1.245676          -1.388750          -1.261310
hessian_block                4      11          -1.089654           1.359037          -1.389535           1.907502          -2.193555           1.828258          -1.251991           1.533425          -1.232176
hessian_block                4      12          -0.121022          -0.053714           0.073299          -0.202254           0.199634           0.002242          -0.408338           0.158671           0.177408
hessian_block                4      13           0.085685           0.063574           0.241527           0.203332          -0.051836          -0.171549          -0.141363           0.060767           0.344033
hessian_block                4      14          -2.477786          -1.894658           1.824118          -1.083707          -1.225077           1.291424           1.291911           1.124056          -1.374928
hessian_block                4      15          -0.285915           0.068905          -0.155681           0.266001          -0.120142           0.104124          -0.460102          -0.136775           0.288410
hessian_block                4      16          -2.166258          -1.747682          -1.720317          -1.467212          -1.302776          -1.379993          -1.392775          -1.381924          -1.504806
hessian_block                5       5           8.137502           0.002414           0.007777           0.002414           8.068965           0.036620           0.007777           0.036620           9.350321
hessian_block                5       6          -0.154761          -0.151261          -0.026544          -0.049048          -0.111151          -0.070127          -0.274750          -0.316623          -0.170655
hessian_block                5       7           0.008392           0.030029           0.089665           0.059419          -0.032328          -0.106021          -0.040995          -0.046118          -0.057708
hessian_block                5       8          -0.048689           0.140266           0.055824           0.036983          -0.079669          -0.100197          -0.013652          -0.061969          -0.013472
hessian_block                5       9          -1.282938          -1.232369          -1.490617          -1.137349          -1.133046          -1.440538          -1.886394          -1.892894          -2.003053
hessian_block                5      10           0.073935           0.074810           0.027231          -0.057610           0.013070           0.096358           0.175076           0.146055           0.078892
hessian_block                5      11          -0.071448          -0.065643          -0.084561          -0.070310          -0.076031           0.015920          -0.026776           0.028825           0.113398
hessian_block                5      12          -1.256810          -1.395801           1.527668          -1.236973          -1.227685           1.546688           1.858234           1.853592          -1.947292
hessian_block                5      13          -0.019092          -0.000858          -0.089616           0.097742           0.107651           0.104022           0.087914           0.164858           0.039949
hessian_block                5      14          -1.195637           1.449966           1.458521           1.355097          -1.417943          -1.406343           1.793592          -1.746413          -1.992914
hessian_block                5      15           0.084628           0.035514           0.080494          -0.025565          -0.037357          -0.005212           0.194168           0.207940           0.070342
hessian_block                5      16          -1.255911           1.452354          -1.467615           1.437165          -1.279008           1.552689          -1.749914           1.772088          -1.916252
hessian_block                6       6           7.091393           0.411722          -0.394991           0.411722           7.539134           0.739377          -0.394991           0.739377           6.497603
hessian_block                6       7           0.028940           0.179253          -0.608918           0.208092          -0.622596           0.667126           0.134986          -0.090958          -0.044674
hessian_block                6       8           0.660224          -0.459509          -0.297904          -0.312228          -0.267854           0.499100          -0.104041           0.013910          -0.324235
hessian_block                6       9          -0.679594           0.012895           0.445854          -0.536305          -0.011228          -0.269809           0.572389           0.145891           0.605338
hessian_block                6      10          -1.732636          -1.545857          -0.713687          -1.604627          -1.280391          -1.011911          -1.391190          -2.008935          -2.341392
hessian_block                6      11          -0.913959          -1.571119           1.758781          -0.896279          -1.225106           1.146280           2.236796           1.710596          -1.581084
hessian_block                6      12          -0.003786           0.066729           0.159535           0.156647          -0.220505          -0.295739           0.173034          -0.157346          -0.001233
hessian_block                6      13          -1.244430           1.478633           1.059713           1.470165          -1.296815          -1.260924           1.379037          -1.794102          -1.964257
hessian_block                6      14          -0.744304           0.065856          -0.544862           0.417658           0.167262          -0.177692          -0.528995           0.202626           0.076013
hessian_block                6      15          -1.413996           1.032485          -1.914664           1.187447          -0.791806           1.186025          -1.466731           1.471551          -0.953967
hessian_block                6      16          -0.075352           0.265313          -0.414092          -0.108114           0.139719           0.085533           0.050942          -0.043851           0.458269
hessian_block                7       7           8.126249           0.671697           0.080857           0.671697           7.191706          -0.191134           0.080857          -0.191134           7.981576
hessian_block                7       8          -0.445264          -0.430120           0.179871           0.629722          -0.601758          -0.144572          -0.090248           0.382884           0.103004
hessian_block                7       9           0.268296          -0.124451           0.027801          -0.134764           0.360382           0.118577           0.165265          -0.075461          -0.034978
hessian_block                7      10          -1.798313           1.667564          -1.781117           1.155841          -0.879451           1.511962          -1.329151           1.053610          -1.628194
hessian_block                7      11          -1.828304           1.506298           1.580880           1.008102          -0.737920          -1.306655           1.438357          -0.985092          -1.327827
hessian_block                7      12          -0.031247           0.549150          -0.098215          -0.117040           0.240409          -0.077839          -0.275633           0.112041           0.005480
hessian_block                7      13          -0.162467           0.269661           0.202791           0.071769           0.189450          -0.144808           0.016887          -0.089510           0.329847
hessian_block                7      14          -1.534930          -1.204763          -1.364586          -1.644460          -1.620485          -1.633465          -1.677996          -1.173157          -1.406100
hessian_block                7      15           0.196942          -0.139045          -0.155651          -0.248525           0.720667           0.210130           0.073695          -0.495520           0.179147
hessian_block                7      16          -1.309684          -1.294523           1.234050          -1.896109          -1.675118           1.886423           1.279513           1.432983          -1.376739
hessian_block                8       8           7.436476           0.668579           0.100484           0.668579           8.000377           0.048582           0.100484           0.048582           7.796503
hessian_block                8       9          -1.882024           1.638705          -1.801331           1.201943          -0.767697           1.283472          -1.206757           1.109503          -1.232675
hessian_block                8      10           0.263391          -0.415469          -0.189487          -0.034531           0.049044          -0.352004           0.058665          -0.118624           0.312287
hessian_block                8      11          -0.149111          -0.106066           0.150359          -0.563508           0.637035          -0.019467           0.181645           0.242463           0.072973
hessian_block                8      12          -1.776524           1.928513           1.766344           1.746023          -1.121656          -1.435718           1.021986          -0.874760          -1.326652
hessian_block                8      13          -1.385744          -1.232780          -1.571249          -1.549795          -1.895273          -1.489399          -1.490443          -1.398932          -1.443660
hessian_block                8      14          -0.223845           0.430382          -0.058966           0.466545          -0.022110          -0.037770          -0.312227           0.258174          -0.132368
hessian_block                8      15          -1.228281          -1.620902           1.495508          -1.474650          -1.594015           1.478335           0.808456           1.634609          -1.442962
hessian_block                8      16           0.241912           0.042375           0.106795           0.103073           0.364980          -0.113382          -0.079404           0.104645          -0.037021
hessian_block                9       9           9.411159           0.985798          -0.448391           0.985798           9.769072          -0.437349          -0.448391          -0.437349           8.982559
hessian_block                9      10           0.103142           0.461905          -0.497490           0.204241          -0.192694          -0.183426          -0.422350          -0.247505          -0.315689
hessian_block                9      11           0.591422           0.426096          -0.066615           0.474103          -0.081853           0.182165          -0.169511          -0.153340           0.220784
hessian_block                9      12          -0.314496          -0.018499          -0.029742           0.019481           0.456242          -0.428608          -0.224138          -0.012293           0.053928
hessian_block                9      13          -0.013812          -0.129284          -0.018444           0.081209           0.016247           0.025867           0.164780           0.212570          -0.308725
hessian_block                9      14           0.287490           0.299972          -0.246583          -0.031435          -0.134275          -0.062125          -0.054389          -0.259758           0.054817
hessian_block                9      15          -0.418561           0.326934          -0.173434           0.261875          -0.376521           0.035597           0.753548           0.295217          -0.726267
hessian_block                9      16          -0.020495           0.259680          -0.395190           0.393201           0.267125          -0.267022           0.205010          -0.011346          -0.096748
hessian_block               10      10           9.690217           1.168182          -0.630457           1.168182           9.987743          -0.654063          -0.630457          -0.654063          10.389060
hessian_block               10      11          -0.268512           0.137415          -0.405280           0.010229          -0.190552          -0.353068          -0.647381          -0.625624           0.353143
hessian_block               10      12          -0.371312          -0.579947           0.791991          -0.161226          -0.396971           0.770418          -0.069740          -0.359344           0.629137
hessian_block               10      13           0.304136           0.060509          -0.410821          -0.215727          -0.128899           0.335459           0.076605          -0.105431          -0.234823
hessian_block               10      14           0.375093           0.010047          -0.184609          -0.503742          -0.335820           0.748140           0.639917           0.303920          -0.480752
hessian_block               10      15           0.108247          -0.016789           0.538096          -0.040693          -0.115754          -0.413239          -0.006718           0.084454          -0.446626
hessian_block               10      16          -0.098513          -0.303980           0.530793           0.041748          -0.163837          -0.474177           0.254389           0.299035          -0.585799
hessian_block               11      11           8.983862           0.587794           0.108672           0.587794           8.975466          -0.035571           0.108672          -0.035571           8.961370
hessian_block               11      12          -0.055704          -0.145485           0.075529          -0.382902          -0.619447           0.089799          -0.140293          -0.371389           0.102325
hessian_block               11      13           0.210379           0.046522           0.108610          -0.061588          -0.184891          -0.220512           0.629919           0.537928           0.108981
hessian_block               11      14           0.040261           0.276530          -0.667248          -0.129605          -0.648290           0.521659           0.021157           0.097316          -0.889520
hessian_block               11      15          -0.520558          -0.285633          -0.060190           0.477533           0.005937          -0.109756           0.105950           0.333944          -0.436839
hessian_block               11      16          -0.515310          -0.149928           0.391397           0.383417          -0.186829          -0.759886           0.141635          -0.234176          -0.748660
hessian_block               12      12           9.394480           0.385102           0.631722           0.385102           9.558663           0.535773           0.631722           0.535773           9.115445
hessian_block               12      13           0.027549           0.175047          -0.000879          -0.199022          -0.264523          -0.017616          -0.307360           0.050351          -0.502346
hessian_block               12      14           0.486992           0.040569           0.465757          -0.243754           0.336276          -0.060188           0.362405          -0.140052           0.207381
hessian_block               12      15          -0.145829           0.072318           0.043574          -0.097638          -0.085962          -0.118533          -0.418589          -0.305844          -0.584609
hessian_block               12      16           0.433309           0.103161           0.278882          -0.647084           0.124837          -0.078109          -0.339903           0.330989          -0.082249
hessian_block               13      13           8.795751          -0.211771           0.181401          -0.211771           8.685837           0.120868           0.181401           0.120868           8.947489
hessian_block               13      14           0.057698           0.072226           0.266554          -0.252598          -0.046289          -0.135443           0.097252          -0.101445          -0.068258
hessian_block               13      15          -0.280349           0.384597          -0.105575           0.168515          -0.497200           0.338978           0.269749          -0.361302           0.569543
hessian_block               13      16          -0.355705          -0.027143          -0.351899           0.247142          -0.287225           0.505357           0.306579          -0.223662           0.309497
hessian_block               14      14           9.971886          -0.887303           0.653350          -0.887303           9.192468          -0.581663           0.653350          -0.581663           9.153340
hessian_block               14      15           0.707461          -0.360104           0.280541          -0.401708          -0.008089          -0.225362           0.613274          -0.263201           0.335195
hessian_block               14      16          -0.000215           0.069904          -0.009594           0.476950          -0.667094           0.152495           0.200911          -0.274776           0.203455
hessian_block               15      15          10.014982          -0.632124          -0.406736          -0.632124           8.661367           0.621066          -0.406736           0.621066           8.992423
hessian_block               15      16           0.084700          -0.078121           0.209334           0.016028          -0.218665           0.377193          -0.137209           0.169307           0.057981