#=======================================================
#FHI-aims file: graphite.in
#Created using the Atomic Simulation Environment (ASE)
#=======================================================
lattice_vector 2.4600000000000000 0.0000000000000000 0.0000000000000000 
lattice_vector -1.2299999999999995 2.1304224933097196 0.0000000000000000 
lattice_vector 0.0000000000000000 0.0000000000000000 6.7999999999999998 
atom 0.0000000000000000 0.0000000000000000 1.7000000000000000 C
# atom 0.0000000000000000 0.0000000000000000 5.0999999999999996 C
atom -0.0000122999999996 1.4202887636147907 1.7000000000000000 C
# atom 1.2300123000000001 0.7101337296949288 5.0999999999999996 C
