# alpha-SiO2 (WICKOFF P3_{1}21 #152)  [HEX,HEX,hP9] (STD_PRIM doi:10.1016/j.commatsci.2010.05.010)
lattice_vector   2.45790000000000  -4.25720767992354   0.00000000000000
lattice_vector   2.45790000000000   4.25720767992354   0.00000000000000
lattice_vector   0.00000000000000   0.00000000000000   5.40910000000000
atom_frac   0.00000000000000   0.46970000000000   0.33333333333333  Si
atom_frac   0.46970000000000  -0.00000000000000   0.00000000000000  Si
atom_frac   0.53030000000000   0.53030000000000   0.66666666666667  Si
atom_frac   0.41420000000000   0.26800000000000   0.88100000000000  O
atom_frac   0.26800000000000   0.41420000000000   0.45233333333333  O
atom_frac   0.58580000000000   0.85380000000000   0.78566666666667  O
atom_frac   0.73200000000000   0.14620000000000   0.21433333333333  O
atom_frac   0.85380000000000   0.58580000000000   0.54766666666667  O
atom_frac   0.14620000000000   0.73200000000000   0.11900000000000  O
